# Solution for model r5_t27_m4_4 Batch Number: 3
# Finished Task: 26 / 27
# Makespan: 823.0, Total Distance: 556.0, Total Time: 3.0067
# R O S F Batch
0 0 7 0.0 0.0 -1
1 1 21 0.0 0.0 -1
2 2 5 0.0 0.0 -1
3 3 27 0.0 0.0 -1
4 4 18 0.0 0.0 -1
5 2 25 361.0 388.0 0
6 -1 -1 -1.0 -1.0 2
7 0 17 358.0 387.0 0
8 1 14 510.0 535.0 0
9 0 11 486.0 510.0 0
10 2 16 475.0 510.0 0
11 0 30 605.0 637.0 0
12 3 -1 787.0 823.0 2
13 1 8 396.0 432.0 0
14 1 19 604.0 637.0 0
15 1 20 313.0 334.0 0
16 2 29 525.0 554.0 0
17 0 28 397.0 435.0 0
18 4 -1 602.0 637.0 0
19 1 31 649.0 674.0 2
20 1 13 344.0 376.0 0
21 1 15 246.0 269.0 0
22 3 12 684.0 715.0 1
23 2 -1 654.0 681.0 2
24 1 26 737.0 769.0 2
25 2 10 433.0 453.0 0
26 1 -1 792.0 823.0 2
27 3 22 598.0 637.0 0
28 0 9 452.0 478.0 0
29 2 23 598.0 621.0 0
30 0 -1 650.0 685.0 2
31 1 24 674.0 696.0 2
